2025-10-11 23:36:59,938 - INFO - 📌 第一个 epoch：默认所有模块使用 checkpoint
2025-10-11 23:39:22,953 - INFO - Epoch 1 completed in 143.036681 seconds
2025-10-11 23:39:56,569 - INFO - torch.cuda.max_memory_reserved() : 15.2421875
2025-10-11 23:42:20,621 - INFO - 
[🔁 拟合反向传播时间模型]
2025-10-11 23:42:20,622 - INFO - 总反向传播时间: 143.600462s
2025-10-11 23:42:20,622 - INFO - 拟合模型: backward_total ≈ 2 × (A + B) + b
2025-10-11 23:42:20,622 - INFO - A = 124.352942, B = 12.099325, b = 7.148195s
2025-10-11 23:42:20,645 - INFO - Set parameter LicenseID to value 2706656
2025-10-11 23:42:20,670 - INFO - Set parameter LogToConsole to value 1
2025-10-11 23:42:20,671 - INFO - Set parameter LogFile to value ""
2025-10-11 23:42:20,671 - INFO - Set parameter Threads to value 12
2025-10-11 23:42:20,671 - INFO - Set parameter TimeLimit to value 3600
2025-10-11 23:42:20,671 - INFO - Set parameter OptimalityTol to value 0.0001
2025-10-11 23:42:20,671 - INFO - Set parameter IntFeasTol to value 1e-05
2025-10-11 23:42:20,672 - INFO - Set parameter StartNodeLimit to value 10000000
2025-10-11 23:42:20,731 - INFO - Set parameter TimeLimit to value 3600
2025-10-11 23:42:20,731 - INFO - 
2025-10-11 23:42:20,731 - INFO - 
2025-10-11 23:42:20,731 - INFO - Restarting solve
2025-10-11 23:42:20,731 - INFO - 
2025-10-11 23:42:20,732 - INFO - 
2025-10-11 23:42:20,733 - INFO - Gurobi Optimizer version 12.0.3 build v12.0.3rc0 (linux64 - "Ubuntu 20.04.6 LTS")
2025-10-11 23:42:20,733 - INFO - 
2025-10-11 23:42:20,733 - INFO - CPU model: Intel(R) Xeon(R) Platinum 8260 CPU @ 2.40GHz, instruction set [SSE2|AVX|AVX2|AVX512]
2025-10-11 23:42:20,733 - INFO - Thread count: 48 physical cores, 96 logical processors, using up to 12 threads
2025-10-11 23:42:20,733 - INFO - 
2025-10-11 23:42:20,733 - INFO - Non-default parameters:
2025-10-11 23:42:20,733 - INFO - TimeLimit  3600
2025-10-11 23:42:20,734 - INFO - OptimalityTol  0.0001
2025-10-11 23:42:20,734 - INFO - StartNodeLimit  10000000
2025-10-11 23:42:20,734 - INFO - Threads  12
2025-10-11 23:42:20,734 - INFO - 
2025-10-11 23:42:20,734 - INFO - Optimize a model with 5603 rows, 3584 columns and 15200 nonzeros
2025-10-11 23:42:20,734 - INFO - Model fingerprint: 0x3801c0f7
2025-10-11 23:42:20,734 - INFO - Variable types: 1024 continuous, 2560 integer (2560 binary)
2025-10-11 23:42:20,734 - INFO - Coefficient statistics:
2025-10-11 23:42:20,734 - INFO -   Matrix range     [1e+00, 5e+15]
2025-10-11 23:42:20,734 - INFO -   Objective range  [7e+04, 2e+06]
2025-10-11 23:42:20,734 - INFO -   Bounds range     [1e+00, 2e+16]
2025-10-11 23:42:20,734 - INFO -   RHS range        [1e+00, 2e+16]
2025-10-11 23:42:20,734 - INFO - Warning: Model contains large matrix coefficient range
2025-10-11 23:42:20,734 - INFO - Warning: Model contains large rhs
2025-10-11 23:42:20,734 - INFO - Warning: Model contains large bounds
2025-10-11 23:42:20,734 - INFO -          Consider reformulating model or setting NumericFocus parameter
2025-10-11 23:42:20,734 - INFO -          to avoid numerical issues.
2025-10-11 23:42:20,750 - INFO - Presolve removed 4283 rows and 1964 columns
2025-10-11 23:42:20,750 - INFO - Presolve time: 0.01s
2025-10-11 23:42:20,750 - INFO - Presolved: 1320 rows, 1620 columns, 4514 nonzeros
2025-10-11 23:42:20,752 - INFO - Variable types: 0 continuous, 1620 integer (1095 binary)
2025-10-11 23:42:20,762 - INFO - 
2025-10-11 23:42:20,762 - INFO - Root relaxation: objective 2.621684e+07, 432 iterations, 0.00 seconds (0.00 work units)
2025-10-11 23:42:20,769 - INFO - 
2025-10-11 23:42:20,769 - INFO -     Nodes    |    Current Node    |     Objective Bounds      |     Work
2025-10-11 23:42:20,769 - INFO -  Expl Unexpl |  Obj  Depth IntInf | Incumbent    BestBd   Gap | It/Node Time
2025-10-11 23:42:20,769 - INFO - 
2025-10-11 23:42:20,769 - INFO -      0     0 2.6217e+07    0  116          - 2.6217e+07      -     -    0s
2025-10-11 23:42:20,805 - INFO -      0     0 2.6405e+07    0   36          - 2.6405e+07      -     -    0s
2025-10-11 23:42:20,824 - INFO -      0     0 2.6419e+07    0   75          - 2.6419e+07      -     -    0s
2025-10-11 23:42:20,836 - INFO -      0     0 2.6439e+07    0  140          - 2.6439e+07      -     -    0s
2025-10-11 23:42:20,848 - INFO -      0     0 2.6439e+07    0  155          - 2.6439e+07      -     -    0s
2025-10-11 23:42:20,849 - INFO -      0     0 2.6444e+07    0   42          - 2.6444e+07      -     -    0s
2025-10-11 23:42:20,855 - INFO -      0     0 2.6444e+07    0   39          - 2.6444e+07      -     -    0s
2025-10-11 23:42:20,872 - INFO -      0     0 2.6444e+07    0    5          - 2.6444e+07      -     -    0s
2025-10-11 23:42:20,916 - INFO -      0     2 2.6444e+07    0    5          - 2.6444e+07      -     -    0s
2025-10-11 23:42:20,941 - INFO - *   67    86               5    2.644353e+07 2.6444e+07  0.00%   8.9    0s
2025-10-11 23:42:20,941 - INFO - 
2025-10-11 23:42:20,942 - INFO - Cutting planes:
2025-10-11 23:42:20,942 - INFO -   Cover: 22
2025-10-11 23:42:20,942 - INFO -   MIR: 1
2025-10-11 23:42:20,942 - INFO -   GUB cover: 3
2025-10-11 23:42:20,942 - INFO - 
2025-10-11 23:42:20,942 - INFO - Explored 87 nodes (1424 simplex iterations) in 0.21 seconds (0.13 work units)
2025-10-11 23:42:20,942 - INFO - Thread count was 12 (of 96 available processors)
2025-10-11 23:42:20,942 - INFO - 
2025-10-11 23:42:20,942 - INFO - Solution count 1: 2.64435e+07 
2025-10-11 23:42:20,942 - INFO - 
2025-10-11 23:42:20,942 - INFO - Optimal solution found (tolerance 1.00e-04)
2025-10-11 23:42:20,942 - INFO - Best objective 2.644353100000e+07, best bound 2.644353100000e+07, gap 0.0000%
2025-10-11 23:42:20,954 - INFO - 规划前的显存GB：16.0
2025-10-11 23:42:20,954 - INFO - 规划后的显存GB：14.462152481079102
2025-10-11 23:42:20,954 - INFO - ✅ 最优策略：[1, 1, 1, 1, 1, 1, 0, 0, 0, 1, 0, 0, 0, 0, 0, 1]
2025-10-11 23:42:20,954 - INFO - 📌 checkpoint 的欧氏长度:, [2075, 2400]
2025-10-11 23:42:20,954 - INFO - 📌 checkpoint 的余弦长度:, [128, 777, 1101, 1426, 1750, 2075]
2025-10-11 23:42:20,954 - INFO - 💾 最终显存峰值：%.2f MB % 27442.5994720459
2025-10-11 23:42:20,969 - INFO - Epoch 2 completed in 144.398809 seconds
2025-10-11 23:42:20,969 - INFO - torch.cuda.max_memory_reserved() : 15.2421875
2025-10-11 23:44:18,504 - INFO - Epoch 3 completed in 117.534387 seconds
2025-10-11 23:44:18,504 - INFO - 
====================== [第1个 Epoch 收集统计数据] ======================
2025-10-11 23:44:18,504 - INFO - 
🔍 EUCLIDEAN modules:
2025-10-11 23:44:18,504 - INFO - [Shapelet 128] forward_avg=0.003226s over 278 calls | peak=545.46MB | final=0.00MB
2025-10-11 23:44:18,504 - INFO - [Shapelet 452] forward_avg=0.008137s over 278 calls | peak=1696.97MB | final=0.00MB
2025-10-11 23:44:18,504 - INFO - [Shapelet 777] forward_avg=0.011983s over 278 calls | peak=2541.23MB | final=0.00MB
2025-10-11 23:44:18,504 - INFO - [Shapelet 1101] forward_avg=0.014359s over 278 calls | peak=3076.86MB | final=0.00MB
2025-10-11 23:44:18,504 - INFO - [Shapelet 1426] forward_avg=0.015454s over 278 calls | peak=3302.11MB | final=0.00MB
2025-10-11 23:44:18,504 - INFO - [Shapelet 1750] forward_avg=0.014945s over 278 calls | peak=3220.47MB | final=0.00MB
2025-10-11 23:44:18,504 - INFO - [Shapelet 2075] forward_avg=0.013203s over 278 calls | peak=2830.50MB | final=0.00MB
2025-10-11 23:44:18,505 - INFO - [Shapelet 2400] forward_avg=0.009790s over 278 calls | peak=2129.31MB | final=0.00MB
2025-10-11 23:44:18,505 - INFO - 
🔍 COSINE modules:
2025-10-11 23:44:18,505 - INFO - [Shapelet 128] forward_avg=0.002201s over 278 calls | peak=360.86MB | final=0.00MB
2025-10-11 23:44:18,505 - INFO - [Shapelet 452] forward_avg=0.005135s over 278 calls | peak=1127.04MB | final=0.00MB
2025-10-11 23:44:18,505 - INFO - [Shapelet 777] forward_avg=0.007578s over 278 calls | peak=1688.97MB | final=0.00MB
2025-10-11 23:44:18,505 - INFO - [Shapelet 1101] forward_avg=0.009005s over 278 calls | peak=2044.93MB | final=0.00MB
2025-10-11 23:44:18,505 - INFO - [Shapelet 1426] forward_avg=0.009767s over 278 calls | peak=2194.08MB | final=0.00MB
2025-10-11 23:44:18,505 - INFO - [Shapelet 1750] forward_avg=0.009437s over 278 calls | peak=2138.55MB | final=0.00MB
2025-10-11 23:44:18,505 - INFO - [Shapelet 2075] forward_avg=0.008528s over 278 calls | peak=1876.87MB | final=0.00MB
2025-10-11 23:44:18,505 - INFO - [Shapelet 2400] forward_avg=0.006357s over 278 calls | peak=1408.89MB | final=0.00MB
2025-10-11 23:44:18,505 - INFO - 
🔍 CROSS modules:
2025-10-11 23:44:18,505 - INFO - [Shapelet 128] forward_avg=0.000659s over 278 calls
2025-10-11 23:44:18,505 - INFO - [Shapelet 452] forward_avg=0.001078s over 278 calls
2025-10-11 23:44:18,505 - INFO - [Shapelet 777] forward_avg=0.001649s over 278 calls
2025-10-11 23:44:18,505 - INFO - [Shapelet 1101] forward_avg=0.002327s over 278 calls
2025-10-11 23:44:18,505 - INFO - [Shapelet 1426] forward_avg=0.003040s over 278 calls
2025-10-11 23:44:18,505 - INFO - [Shapelet 1750] forward_avg=0.003691s over 278 calls
2025-10-11 23:44:18,505 - INFO - [Shapelet 2075] forward_avg=0.004361s over 278 calls
2025-10-11 23:44:18,505 - INFO - [Shapelet 2400] forward_avg=0.004956s over 278 calls
2025-10-11 23:44:18,505 - INFO - 
💾 模型第一次反向传播阶段的显存峰值（所有模块中的最大值）: 14129.12 MB
2025-10-11 23:44:18,505 - INFO - 
💾 模型初始显存: 104.49 MB
2025-10-11 23:44:18,505 - INFO - =======================================================================

2025-10-11 23:44:18,505 - INFO - torch.cuda.max_memory_reserved() : 19.505859375
2025-10-11 23:46:18,929 - INFO - Epoch 4 completed in 120.423551 seconds
2025-10-11 23:46:18,930 - INFO - torch.cuda.max_memory_reserved() : 19.505859375
2025-10-11 23:48:17,459 - INFO - Epoch 5 completed in 118.528454 seconds
2025-10-11 23:48:17,459 - INFO - torch.cuda.max_memory_reserved() : 19.505859375
2025-10-11 23:50:17,970 - INFO - Epoch 6 completed in 120.510129 seconds
2025-10-11 23:50:17,970 - INFO - torch.cuda.max_memory_reserved() : 19.505859375
2025-10-11 23:52:16,722 - INFO - Epoch 7 completed in 118.750799 seconds
2025-10-11 23:52:16,722 - INFO - torch.cuda.max_memory_reserved() : 19.505859375
2025-10-11 23:54:16,931 - INFO - Epoch 8 completed in 120.208196 seconds
2025-10-11 23:54:16,931 - INFO - torch.cuda.max_memory_reserved() : 19.505859375
2025-10-11 23:56:16,521 - INFO - Epoch 9 completed in 119.588559 seconds
2025-10-11 23:56:16,521 - INFO - torch.cuda.max_memory_reserved() : 19.505859375
2025-10-11 23:58:14,041 - INFO - Epoch 10 completed in 117.519160 seconds
2025-10-11 23:58:46,831 - INFO - torch.cuda.max_memory_reserved() : 19.505859375
2025-10-11 23:58:46,832 - INFO - !!!采用策略后的几个epoch 平均时间:119.1329043507576
2025-10-11 23:58:46,832 - INFO - 



